(benchmark gametime
:status unknown
:logic QF_AUFBV
:extrafuns ((gtINDEX43  BitVec[32]))
:extrafuns ((gtFIELD__bitsForTID0__gtAGG____anonstruct_D_Work_4  Array[32:32]))
:extrafuns ((gtINDEX44  BitVec[32]))
:extrafuns ((gtAGG__rtDWork  BitVec[32]))
:extrafuns ((gtINDEX41  BitVec[32]))
:extrafuns ((gtINDEX42  BitVec[32]))
:extrafuns ((gtINDEX40  BitVec[32]))
:extrafuns ((gtINDEX39  BitVec[32]))
:extrafuns ((gtINDEX38  BitVec[32]))
:extrafuns ((gtINDEX37  BitVec[32]))
:extrafuns ((gtINDEX36  BitVec[32]))
:extrafuns ((gtINDEX35  BitVec[32]))
:extrafuns ((gtINDEX34  BitVec[32]))
:extrafuns ((gtINDEX33  BitVec[32]))
:extrafuns ((gtINDEX31  BitVec[32]))
:extrafuns ((gtINDEX32  BitVec[32]))
:extrafuns ((gtINDEX29  BitVec[32]))
:extrafuns ((gtINDEX30  BitVec[32]))
:extrafuns ((gtINDEX27  BitVec[32]))
:extrafuns ((gtINDEX28  BitVec[32]))
:extrafuns ((gtINDEX25  BitVec[32]))
:extrafuns ((gtINDEX26  BitVec[32]))
:extrafuns ((gtINDEX23  BitVec[32]))
:extrafuns ((gtINDEX24  BitVec[32]))
:extrafuns ((gtINDEX22  BitVec[32]))
:extrafuns ((gtINDEX20  BitVec[32]))
:extrafuns ((gtINDEX21  BitVec[32]))
:extrafuns ((gtINDEX18  BitVec[32]))
:extrafuns ((gtINDEX19  BitVec[32]))
:extrafuns ((gtINDEX16  BitVec[32]))
:extrafuns ((gtINDEX17  BitVec[32]))
:extrafuns ((gtINDEX14  BitVec[32]))
:extrafuns ((gtINDEX15  BitVec[32]))
:extrafuns ((gtINDEX13  BitVec[32]))
:extrafuns ((gtINDEX11  BitVec[32]))
:extrafuns ((gtINDEX12  BitVec[32]))
:extrafuns ((gtINDEX9  BitVec[32]))
:extrafuns ((gtINDEX10  BitVec[32]))
:extrafuns ((gtINDEX7  BitVec[32]))
:extrafuns ((gtINDEX8  BitVec[32]))
:extrafuns ((gtINDEX6  BitVec[32]))
:extrafuns ((gtINDEX4  BitVec[32]))
:extrafuns ((gtINDEX5  BitVec[32]))
:extrafuns ((gtINDEX2  BitVec[32]))
:extrafuns ((gtINDEX3  BitVec[32]))
:extrafuns ((gtINDEX0  BitVec[32]))
:extrafuns ((gtINDEX1  BitVec[32]))
:extrafuns ((gtFIELD__is_Eng__gtAGG____anonstruct_bitsForTID0_5  Array[32:1]))
:extrafuns ((gtFIELD__is_Eng__gtAGG____anonstruct_bitsForTID0_5_1_  Array[32:1]))
:extrafuns ((gtFIELD__sh_rst__gtAGG____anonstruct_D_Work_4  Array[32:32]))
:extrafuns ((gtFIELD__sh_rst__gtAGG____anonstruct_D_Work_4_1_  Array[32:32]))
:extrafuns ((gtFIELD__sent__gtAGG____anonstruct_D_Work_4  Array[32:32]))
:extrafuns ((gtFIELD__is_active_Eng__gtAGG____anonstruct_bitsForTID0_5  Array[32:1]))
:extrafuns ((sfEvent_  BitVec[32]))
:extrafuns ((gtFIELD__is_PURI__gtAGG____anonstruct_bitsForTID0_5  Array[32:2]))
:extrafuns ((gtFIELD__is_active_PURI__gtAGG____anonstruct_bitsForTID0_5  Array[32:1]))
:extrafuns ((gtFIELD__is_PVRP__gtAGG____anonstruct_bitsForTID0_5  Array[32:2]))
:extrafuns ((gtFIELD__is_active_PVRP__gtAGG____anonstruct_bitsForTID0_5  Array[32:1]))
:extrafuns ((gtFIELD__is_PPVARP__gtAGG____anonstruct_bitsForTID0_5  Array[32:2]))
:extrafuns ((gtFIELD__is_active_PPVARP__gtAGG____anonstruct_bitsForTID0_5  Array[32:1]))
:extrafuns ((gtFIELD__is_PLRI__gtAGG____anonstruct_bitsForTID0_5  Array[32:2]))
:extrafuns ((gtFIELD__is_active_PLRI__gtAGG____anonstruct_bitsForTID0_5  Array[32:1]))
:extrafuns ((gtFIELD__is_active_PAVI__gtAGG____anonstruct_bitsForTID0_5  Array[32:1]))
:extrapreds ((constraint78 ))
:extrapreds ((constraint77 ))
:extrapreds ((constraint76 ))
:extrapreds ((constraint75 ))
:extrapreds ((constraint74 ))
:extrapreds ((constraint73 ))
:extrapreds ((constraint72 ))
:extrapreds ((constraint71 ))
:extrapreds ((constraint70 ))
:extrapreds ((constraint69 ))
:extrapreds ((constraint68 ))
:extrapreds ((constraint67 ))
:extrapreds ((constraint66 ))
:extrapreds ((constraint65 ))
:extrapreds ((constraint64 ))
:extrapreds ((constraint63 ))
:extrapreds ((constraint62 ))
:extrapreds ((constraint61 ))
:extrapreds ((constraint60 ))
:extrapreds ((constraint59 ))
:extrapreds ((constraint58 ))
:extrapreds ((constraint57 ))
:extrapreds ((constraint56 ))
:extrapreds ((constraint55 ))
:extrapreds ((constraint54 ))
:extrapreds ((constraint53 ))
:extrapreds ((constraint52 ))
:extrapreds ((constraint51 ))
:extrapreds ((constraint50 ))
:extrapreds ((constraint49 ))
:extrapreds ((constraint48 ))
:extrapreds ((constraint47 ))
:extrapreds ((constraint46 ))
:extrapreds ((constraint45 ))
:extrapreds ((constraint44 ))
:extrapreds ((constraint43 ))
:extrapreds ((constraint42 ))
:extrapreds ((constraint41 ))
:extrapreds ((constraint40 ))
:extrapreds ((constraint39 ))
:extrapreds ((constraint38 ))
:extrapreds ((constraint37 ))
:extrapreds ((constraint36 ))
:extrapreds ((constraint35 ))
:extrapreds ((constraint34 ))
:extrapreds ((constraint33 ))
:extrapreds ((constraint32 ))
:extrapreds ((constraint31 ))
:extrapreds ((constraint30 ))
:extrapreds ((constraint29 ))
:extrapreds ((constraint28 ))
:extrapreds ((constraint27 ))
:extrapreds ((constraint26 ))
:extrapreds ((constraint25 ))
:extrapreds ((constraint24 ))
:extrapreds ((constraint23 ))
:extrapreds ((constraint22 ))
:extrapreds ((constraint21 ))
:extrapreds ((constraint20 ))
:extrapreds ((constraint19 ))
:extrapreds ((constraint18 ))
:extrapreds ((constraint17 ))
:extrapreds ((constraint16 ))
:extrapreds ((constraint15 ))
:extrapreds ((constraint14 ))
:extrapreds ((constraint13 ))
:extrapreds ((constraint12 ))
:extrapreds ((constraint11 ))
:extrapreds ((constraint10 ))
:extrapreds ((constraint9 ))
:extrapreds ((constraint8 ))
:extrapreds ((constraint7 ))
:extrapreds ((constraint6 ))
:extrapreds ((constraint5 ))
:extrapreds ((constraint4 ))
:extrapreds ((constraint3 ))
:extrapreds ((constraint2 ))
:extrapreds ((constraint1 ))
:extrapreds ((constraint0 ))
:formula
(flet ($x417 (and constraint0 constraint1 constraint2 constraint3 constraint4 constraint5 constraint6 constraint7 constraint8 constraint9 constraint10 constraint11 constraint12 constraint13 constraint14 constraint15 constraint16 constraint17 constraint18 constraint19 constraint20 constraint21 constraint22 constraint23 constraint24 constraint25 constraint26 constraint27 constraint28 constraint29 constraint30 constraint31 constraint32 constraint33 constraint34 constraint35 constraint36 constraint37 constraint38 constraint39 constraint40 constraint41 constraint42 constraint43 constraint44 constraint45 constraint46 constraint47 constraint48 constraint49 constraint50 constraint51 constraint52 constraint53 constraint54 constraint55 constraint56 constraint57 constraint58 constraint59 constraint60 constraint61 constraint62 constraint63 constraint64 constraint65 constraint66 constraint67 constraint68 constraint69 constraint70 constraint71 constraint72 constraint73 constraint74 constraint75 constraint76 constraint77 constraint78))
(flet ($x257 (= gtINDEX44 (select gtFIELD__bitsForTID0__gtAGG____anonstruct_D_Work_4 gtINDEX43)))
(flet ($x253 (= gtINDEX42 (select gtFIELD__bitsForTID0__gtAGG____anonstruct_D_Work_4 gtINDEX41)))
(flet ($x241 (= gtINDEX32 (select gtFIELD__bitsForTID0__gtAGG____anonstruct_D_Work_4 gtINDEX31)))
(flet ($x237 (= gtINDEX30 (select gtFIELD__bitsForTID0__gtAGG____anonstruct_D_Work_4 gtINDEX29)))
(flet ($x233 (= gtINDEX28 (select gtFIELD__bitsForTID0__gtAGG____anonstruct_D_Work_4 gtINDEX27)))
(flet ($x229 (= gtINDEX26 (select gtFIELD__bitsForTID0__gtAGG____anonstruct_D_Work_4 gtINDEX25)))
(flet ($x225 (= gtINDEX24 (select gtFIELD__bitsForTID0__gtAGG____anonstruct_D_Work_4 gtINDEX23)))
(flet ($x220 (= gtINDEX21 (select gtFIELD__bitsForTID0__gtAGG____anonstruct_D_Work_4 gtINDEX20)))
(flet ($x216 (= gtINDEX19 (select gtFIELD__bitsForTID0__gtAGG____anonstruct_D_Work_4 gtINDEX18)))
(flet ($x212 (= gtINDEX17 (select gtFIELD__bitsForTID0__gtAGG____anonstruct_D_Work_4 gtINDEX16)))
(flet ($x208 (= gtINDEX15 (select gtFIELD__bitsForTID0__gtAGG____anonstruct_D_Work_4 gtINDEX14)))
(flet ($x203 (= gtINDEX12 (select gtFIELD__bitsForTID0__gtAGG____anonstruct_D_Work_4 gtINDEX11)))
(flet ($x199 (= gtINDEX10 (select gtFIELD__bitsForTID0__gtAGG____anonstruct_D_Work_4 gtINDEX9)))
(flet ($x195 (= gtINDEX8 (select gtFIELD__bitsForTID0__gtAGG____anonstruct_D_Work_4 gtINDEX7)))
(flet ($x190 (= gtINDEX5 (select gtFIELD__bitsForTID0__gtAGG____anonstruct_D_Work_4 gtINDEX4)))
(flet ($x186 (= gtINDEX3 (select gtFIELD__bitsForTID0__gtAGG____anonstruct_D_Work_4 gtINDEX2)))
(flet ($x182 (= gtINDEX1 (select gtFIELD__bitsForTID0__gtAGG____anonstruct_D_Work_4 gtINDEX0)))
(let (?x176 (store gtFIELD__is_Eng__gtAGG____anonstruct_bitsForTID0_5 gtINDEX44 (extract[0:0] bv1[32])))
(flet ($x325 (iff constraint33 (= gtFIELD__is_Eng__gtAGG____anonstruct_bitsForTID0_5_1_ ?x176)))
(let (?x172 (zero_extend[31] (select gtFIELD__is_Eng__gtAGG____anonstruct_bitsForTID0_5 gtINDEX42)))
(flet ($x169 (= gtFIELD__sh_rst__gtAGG____anonstruct_D_Work_4_1_ (store gtFIELD__sh_rst__gtAGG____anonstruct_D_Work_4 gtINDEX40 bv0[32])))
(flet ($x166 (= (select gtFIELD__sh_rst__gtAGG____anonstruct_D_Work_4 gtINDEX39) bv1[32]))
(flet ($x162 (= (select gtFIELD__sent__gtAGG____anonstruct_D_Work_4 gtINDEX38) bv3[32]))
(flet ($x158 (= (select gtFIELD__sent__gtAGG____anonstruct_D_Work_4 gtINDEX37) bv2[32]))
(flet ($x154 (= (select gtFIELD__sent__gtAGG____anonstruct_D_Work_4 gtINDEX36) bv1[32]))
(flet ($x150 (= (select gtFIELD__sent__gtAGG____anonstruct_D_Work_4 gtINDEX35) (bvmul bv4294967295[32] bv1[32])))
(flet ($x144 (= (select gtFIELD__sent__gtAGG____anonstruct_D_Work_4 gtINDEX34) bv9[32]))
(flet ($x139 (= (select gtFIELD__sent__gtAGG____anonstruct_D_Work_4 gtINDEX33) bv4[32]))
(let (?x135 (zero_extend[31] (select gtFIELD__is_Eng__gtAGG____anonstruct_bitsForTID0_5 gtINDEX32)))
(let (?x129 (select gtFIELD__is_active_Eng__gtAGG____anonstruct_bitsForTID0_5 gtINDEX30))
(let (?x125 (select gtFIELD__is_PURI__gtAGG____anonstruct_bitsForTID0_5 gtINDEX28))
(let (?x120 (select gtFIELD__is_PURI__gtAGG____anonstruct_bitsForTID0_5 gtINDEX26))
(let (?x115 (select gtFIELD__is_active_PURI__gtAGG____anonstruct_bitsForTID0_5 gtINDEX24))
(flet ($x112 (= (select gtFIELD__sent__gtAGG____anonstruct_D_Work_4 gtINDEX22) bv0[32]))
(let (?x107 (select gtFIELD__is_PVRP__gtAGG____anonstruct_bitsForTID0_5 gtINDEX21))
(let (?x102 (select gtFIELD__is_PVRP__gtAGG____anonstruct_bitsForTID0_5 gtINDEX19))
(let (?x97 (select gtFIELD__is_PVRP__gtAGG____anonstruct_bitsForTID0_5 gtINDEX17))
(let (?x92 (select gtFIELD__is_active_PVRP__gtAGG____anonstruct_bitsForTID0_5 gtINDEX15))
(flet ($x89 (= (select gtFIELD__sent__gtAGG____anonstruct_D_Work_4 gtINDEX13) bv0[32]))
(let (?x83 (select gtFIELD__is_PPVARP__gtAGG____anonstruct_bitsForTID0_5 gtINDEX12))
(let (?x78 (select gtFIELD__is_PPVARP__gtAGG____anonstruct_bitsForTID0_5 gtINDEX10))
(let (?x73 (select gtFIELD__is_active_PPVARP__gtAGG____anonstruct_bitsForTID0_5 gtINDEX8))
(flet ($x61 (= (select gtFIELD__sent__gtAGG____anonstruct_D_Work_4 gtINDEX6) bv0[32]))
(let (?x56 (zero_extend[30] (select gtFIELD__is_PLRI__gtAGG____anonstruct_bitsForTID0_5 gtINDEX5)))
(let (?x50 (select gtFIELD__is_active_PLRI__gtAGG____anonstruct_bitsForTID0_5 gtINDEX3))
(let (?x43 (select gtFIELD__is_active_PAVI__gtAGG____anonstruct_bitsForTID0_5 gtINDEX1))
(flet ($x416 (and (iff constraint0 (not (= sfEvent_ bv8[32]))) (iff constraint1 (not (not (= (zero_extend[31] ?x43) bv0[32])))) (iff constraint2 (not (= (zero_extend[31] ?x50) bv0[32]))) (iff constraint3 (= ?x56 bv1[32])) (iff constraint4 (not $x61)) (iff constraint5 (not (= sfEvent_ bv4[32]))) (iff constraint6 (not (= sfEvent_ bv5[32]))) (iff constraint7 (not (= sfEvent_ bv3[32]))) (iff constraint8 (not (= (zero_extend[31] ?x73) bv0[32]))) (iff constraint9 (not (= (zero_extend[30] ?x78) bv1[32]))) (iff constraint10 (= (zero_extend[30] ?x83) bv2[32])) (iff constraint11 (not $x89)) (iff constraint12 (not (= (zero_extend[31] ?x92) bv0[32]))) (iff constraint13 (not (= (zero_extend[30] ?x97) bv1[32]))) (iff constraint14 (not (= (zero_extend[30] ?x102) bv2[32]))) (iff constraint15 (= (zero_extend[30] ?x107) bv3[32])) (iff constraint16 (not $x112)) (iff constraint17 (not (= (zero_extend[31] ?x115) bv0[32]))) (iff constraint18 (not (= (zero_extend[30] ?x120) bv1[32]))) (iff constraint19 (= (zero_extend[30] ?x125) bv2[32])) (iff constraint20 (not (= sfEvent_ bv4[32]))) (iff constraint21 (not (= sfEvent_ bv5[32]))) (iff constraint22 (not (= (zero_extend[31] ?x129) bv0[32]))) (iff constraint23 (= ?x135 bv1[32])) (iff constraint24 (not $x139)) (iff constraint25 (not $x144)) (iff constraint26 (not $x150)) (iff constraint27 (not $x154)) (iff constraint28 (not $x158)) (iff constraint29 (not $x162)) (iff constraint30 $x166) (iff constraint31 $x169) (iff constraint32 (= ?x172 bv1[32])) $x325 (iff constraint34 (= gtINDEX0 gtAGG__rtDWork)) (iff constraint35 $x182) (iff constraint36 (= gtINDEX2 gtAGG__rtDWork)) (iff constraint37 $x186) (iff constraint38 (= gtINDEX4 gtAGG__rtDWork)) (iff constraint39 $x190) (iff constraint40 (= gtINDEX6 gtAGG__rtDWork)) (iff constraint41 (= gtINDEX7 gtAGG__rtDWork)) (iff constraint42 $x195) (iff constraint43 (= gtINDEX9 gtAGG__rtDWork)) (iff constraint44 $x199) (iff constraint45 (= gtINDEX11 gtAGG__rtDWork)) (iff constraint46 $x203) (iff constraint47 (= gtINDEX13 gtAGG__rtDWork)) (iff constraint48 (= gtINDEX14 gtAGG__rtDWork)) (iff constraint49 $x208) (iff constraint50 (= gtINDEX16 gtAGG__rtDWork)) (iff constraint51 $x212) (iff constraint52 (= gtINDEX18 gtAGG__rtDWork)) (iff constraint53 $x216) (iff constraint54 (= gtINDEX20 gtAGG__rtDWork)) (iff constraint55 $x220) (iff constraint56 (= gtINDEX22 gtAGG__rtDWork)) (iff constraint57 (= gtINDEX23 gtAGG__rtDWork)) (iff constraint58 $x225) (iff constraint59 (= gtINDEX25 gtAGG__rtDWork)) (iff constraint60 $x229) (iff constraint61 (= gtINDEX27 gtAGG__rtDWork)) (iff constraint62 $x233) (iff constraint63 (= gtINDEX29 gtAGG__rtDWork)) (iff constraint64 $x237) (iff constraint65 (= gtINDEX31 gtAGG__rtDWork)) (iff constraint66 $x241) (iff constraint67 (= gtINDEX33 gtAGG__rtDWork)) (iff constraint68 (= gtINDEX34 gtAGG__rtDWork)) (iff constraint69 (= gtINDEX35 gtAGG__rtDWork)) (iff constraint70 (= gtINDEX36 gtAGG__rtDWork)) (iff constraint71 (= gtINDEX37 gtAGG__rtDWork)) (iff constraint72 (= gtINDEX38 gtAGG__rtDWork)) (iff constraint73 (= gtINDEX39 gtAGG__rtDWork)) (iff constraint74 (= gtINDEX40 gtAGG__rtDWork)) (iff constraint75 (= gtINDEX41 gtAGG__rtDWork)) (iff constraint76 $x253) (iff constraint77 (= gtINDEX43 gtAGG__rtDWork)) (iff constraint78 $x257)))
(and $x416 $x417)))))))))))))))))))))))))))))))))))))))))))))))))
)
